NAME MasterProb
ROWS
 N  OBJ
 L  budget  
 L  ub[0,0] 
 L  ub[0,1] 
 L  ub[0,2] 
 L  ub[1,0] 
 L  ub[1,1] 
 L  ub[1,2] 
 L  ub[2,0] 
 L  ub[2,1] 
 L  ub[2,2] 
 L  ub[3,0] 
 L  ub[3,1] 
 L  ub[3,2] 
 L  ub[4,0] 
 L  ub[4,1] 
 L  ub[4,2] 
 L  dg_limit
 L  pv_if_es
 L  dg_if_es
 L  dg_if_pv
COLUMNS
    MARKER    'MARKER'                 'INTORG'
    X[0,0]    OBJ       4.1616080000000011e+03
    X[0,0]    budget    2.9650133333333338e+02
    X[0,0]    ub[0,0]   1
    X[0,0]    pv_if_es  -4
    X[0,0]    dg_if_es  -1
    X[0,1]    OBJ       8.5606400000000012e+03
    X[0,1]    budget    749.056
    X[0,1]    ub[0,1]   1
    X[0,1]    pv_if_es  1
    X[0,1]    dg_if_pv  -1
    X[0,2]    OBJ       1.0561466666666667e+04
    X[0,2]    budget    3.9013333333333333e+02
    X[0,2]    ub[0,2]   1
    X[0,2]    dg_limit  1
    X[0,2]    dg_if_es  1
    X[0,2]    dg_if_pv  1
    X[1,0]    OBJ       4.1616080000000011e+03
    X[1,0]    budget    2.9650133333333338e+02
    X[1,0]    ub[1,0]   1
    X[1,0]    pv_if_es  -4
    X[1,0]    dg_if_es  -1
    X[1,1]    OBJ       8.5606400000000012e+03
    X[1,1]    budget    749.056
    X[1,1]    ub[1,1]   1
    X[1,1]    pv_if_es  1
    X[1,1]    dg_if_pv  -1
    X[1,2]    OBJ       1.0561466666666667e+04
    X[1,2]    budget    3.9013333333333333e+02
    X[1,2]    ub[1,2]   1
    X[1,2]    dg_limit  1
    X[1,2]    dg_if_es  1
    X[1,2]    dg_if_pv  1
    X[2,0]    OBJ       4.1616080000000011e+03
    X[2,0]    budget    2.9650133333333338e+02
    X[2,0]    ub[2,0]   1
    X[2,0]    pv_if_es  -4
    X[2,0]    dg_if_es  -1
    X[2,1]    OBJ       8.5606400000000012e+03
    X[2,1]    budget    749.056
    X[2,1]    ub[2,1]   1
    X[2,1]    pv_if_es  1
    X[2,1]    dg_if_pv  -1
    X[2,2]    OBJ       1.0561466666666667e+04
    X[2,2]    budget    3.9013333333333333e+02
    X[2,2]    ub[2,2]   1
    X[2,2]    dg_limit  1
    X[2,2]    dg_if_es  1
    X[2,2]    dg_if_pv  1
    X[3,0]    OBJ       4.1616080000000011e+03
    X[3,0]    budget    2.9650133333333338e+02
    X[3,0]    ub[3,0]   1
    X[3,0]    pv_if_es  -4
    X[3,0]    dg_if_es  -1
    X[3,1]    OBJ       8.5606400000000012e+03
    X[3,1]    budget    749.056
    X[3,1]    ub[3,1]   1
    X[3,1]    pv_if_es  1
    X[3,1]    dg_if_pv  -1
    X[3,2]    OBJ       1.0561466666666667e+04
    X[3,2]    budget    3.9013333333333333e+02
    X[3,2]    ub[3,2]   1
    X[3,2]    dg_limit  1
    X[3,2]    dg_if_es  1
    X[3,2]    dg_if_pv  1
    X[4,0]    OBJ       4.1616080000000011e+03
    X[4,0]    budget    2.9650133333333338e+02
    X[4,0]    ub[4,0]   1
    X[4,0]    pv_if_es  -4
    X[4,0]    dg_if_es  -1
    X[4,1]    OBJ       8.5606400000000012e+03
    X[4,1]    budget    749.056
    X[4,1]    ub[4,1]   1
    X[4,1]    pv_if_es  1
    X[4,1]    dg_if_pv  -1
    X[4,2]    OBJ       1.0561466666666667e+04
    X[4,2]    budget    3.9013333333333333e+02
    X[4,2]    ub[4,2]   1
    X[4,2]    dg_limit  1
    X[4,2]    dg_if_es  1
    X[4,2]    dg_if_pv  1
    U[0]      OBJ       18164
    U[0]      budget    18164
    U[0]      ub[0,0]   -200
    U[0]      ub[0,1]   -114
    U[0]      ub[0,2]   -21
    U[1]      OBJ       62936
    U[1]      budget    62936
    U[1]      ub[1,0]   -200
    U[1]      ub[1,1]   -396
    U[1]      ub[1,2]   -21
    U[2]      OBJ       22469
    U[2]      budget    22469
    U[2]      ub[2,0]   -200
    U[2]      ub[2,1]   -141
    U[2]      ub[2,2]   -21
    U[3]      OBJ       21467
    U[3]      budget    21467
    U[3]      ub[3,0]   -200
    U[3]      ub[3,1]   -133
    U[3]      ub[3,2]   -21
    U[4]      OBJ       39160
    U[4]      budget    39160
    U[4]      ub[4,0]   -200
    U[4]      ub[4,1]   -246
    U[4]      ub[4,2]   -21
    MARKER    'MARKER'                 'INTEND'
    eta       OBJ       1
RHS
    RHS1      budget    1000000
    RHS1      dg_limit  21
BOUNDS
 LI BND1      X[0,0]    0
 LI BND1      X[0,1]    0
 LI BND1      X[0,2]    0
 LI BND1      X[1,0]    0
 LI BND1      X[1,1]    0
 LI BND1      X[1,2]    0
 LI BND1      X[2,0]    0
 LI BND1      X[2,1]    0
 LI BND1      X[2,2]    0
 LI BND1      X[3,0]    0
 LI BND1      X[3,1]    0
 LI BND1      X[3,2]    0
 LI BND1      X[4,0]    0
 LI BND1      X[4,1]    0
 LI BND1      X[4,2]    0
 BV BND1      U[0]    
 BV BND1      U[1]    
 BV BND1      U[2]    
 BV BND1      U[3]    
 BV BND1      U[4]    
 LO BND1      eta       -10000000000
ENDATA
